============================[ Problem Statistics ]=============================|                                                                             ||  Number of variables:          4242                                         ||  Number of clauses:            9980                                         ||  Parse time:                   0.38 s                                       ||                                                                             |============================[ Search Statistics ]==============================| Conflicts |          ORIGINAL         |          LEARNT          | Progress ||           |    Vars  Clauses Literals |    Limit  Clauses Lit/Cl |          |===============================================================================|       100 |    1591     6185   587736 |     2267      100     53 | 62.501 % |===============================================================================restarts              : 3conflicts             : 214            (378 /sec)decisions             : 481            (0.00 % random) (850 /sec)propagations          : 11680          (20636 /sec)conflict literals     : 15430          (95.07 % deleted)CPU time              : 0.566 sSATISFIABLE